WARNING: for repeatability, setting FPU to use double precision
============================[ Problem Statistics ]=============================
|                                                                             |
|  Number of variables:            50                                         |
|  Number of clauses:             218                                         |
|  Parse time:                   0.00 s                                       |
|                                                                             |
============================[ Search Statistics ]==============================
| Conflicts |          ORIGINAL         |          LEARNT          | Progress |
|           |    Vars  Clauses Literals |    Limit  Clauses Lit/Cl |          |
===============================================================================
===============================================================================
restarts              : 1
conflicts             : 63             (42028 /sec)
decisions             : 69             (0.00 % random) (46031 /sec)
propagations          : 1006           (671114 /sec)
conflict literals     : 242            (20.66 % deleted)
Memory used           : 20.00 MB
CPU time              : 0.001499 s

UNSATISFIABLE
